Route #1: 0 46 57 0
Route #2: 0 36 38 17 40 21 16 5 19 0
Route #3: 0 18 54 23 7 31 51 11 32 43 0
Route #4: 0 56 34 26 4 30 20 0
Route #5: 0 24 55 27 6 1 39 0
Route #6: 0 62 60 35 45 3 53 29 0
Route #7: 0 25 49 42 37 33 61 0
Route #8: 0 48 13 50 15 10 0
Route #9: 0 59 14 41 2 9 12 8 0
Route #10: 0 58 22 47 44 28 52 0
Cost 2098:
